param n := 120;
param c := 1000;
param : V : p w :=
   0	 404	 394
   1	 290	 280
   2	 336	 326
   3	 380	 370
   4	 294	 284
   5	 356	 346
   6	 437	 427
   7	 269	 259
   8	 324	 314
   9	 440	 430
  10	 280	 270
  11	 310	 300
  12	 472	 462
  13	 271	 261
  14	 287	 277
  15	 366	 356
  16	 302	 292
  17	 362	 352
  18	 508	 498
  19	 260	 250
  20	 262	 252
  21	 442	 432
  22	 286	 276
  23	 302	 292
  24	 401	 391
  25	 262	 252
  26	 367	 357
  27	 407	 397
  28	 284	 274
  29	 339	 329
  30	 500	 490
  31	 261	 251
  32	 269	 259
  33	 418	 408
  34	 266	 256
  35	 346	 336
  36	 444	 434
  37	 272	 262
  38	 314	 304
  39	 492	 482
  40	 266	 256
  41	 272	 262
  42	 397	 387
  43	 285	 275
  44	 348	 338
  45	 372	 362
  46	 303	 293
  47	 355	 345
  48	 438	 428
  49	 294	 284
  50	 298	 288
  51	 418	 408
  52	 298	 288
  53	 314	 304
  54	 490	 480
  55	 260	 250
  56	 280	 270
  57	 404	 394
  58	 286	 276
  59	 340	 330
  60	 371	 361
  61	 263	 253
  62	 396	 386
  63	 385	 375
  64	 291	 281
  65	 354	 344
  66	 488	 478
  67	 261	 251
  68	 281	 271
  69	 488	 478
  70	 260	 250
  71	 282	 272
  72	 366	 356
  73	 286	 276
  74	 378	 368
  75	 397	 387
  76	 279	 269
  77	 354	 344
  78	 496	 486
  79	 262	 252
  80	 272	 262
  81	 424	 414
  82	 273	 263
  83	 333	 323
  84	 420	 410
  85	 260	 250
  86	 350	 340
  87	 410	 400
  88	 305	 295
  89	 315	 305
  90	 392	 382
  91	 292	 282
  92	 346	 336
  93	 444	 434
  94	 279	 269
  95	 307	 297
  96	 405	 395
  97	 288	 278
  98	 337	 327
  99	 363	 353
 100	 291	 281
 101	 376	 366
 102	 429	 419
 103	 295	 285
 104	 306	 296
 105	 372	 362
 106	 324	 314
 107	 334	 324
 108	 505	 495
 109	 261	 251
 110	 264	 254
 111	 509	 499
 112	 260	 250
 113	 261	 251
 114	 374	 364
 115	 299	 289
 116	 357	 347
 117	 508	 498
 118	 260	 250
 119	 262	 252
;

set E :=
   0	   1
   0	   3
   0	   5
   0	   6
   0	  11
   0	  19
   0	  21
   0	  26
   0	  31
   0	  35
   0	  37
   0	  40
   0	  45
   0	  46
   0	  48
   0	  51
   0	  55
   0	  59
   0	  63
   0	  64
   0	  65
   0	  66
   0	  68
   0	  71
   0	  72
   0	  74
   0	  77
   0	  80
   0	  83
   0	  84
   0	  87
   0	  89
   0	  90
   0	  91
   0	  92
   0	  93
   0	  94
   0	  95
   0	  97
   0	 101
   0	 104
   0	 105
   0	 116
   0	 117
   0	 118
   0	 119
   1	   2
   1	   7
   1	   8
   1	   9
   1	  11
   1	  16
   1	  19
   1	  20
   1	  22
   1	  24
   1	  27
   1	  29
   1	  34
   1	  35
   1	  36
   1	  37
   1	  41
   1	  42
   1	  48
   1	  49
   1	  51
   1	  53
   1	  54
   1	  55
   1	  57
   1	  62
   1	  66
   1	  67
   1	  69
   1	  70
   1	  72
   1	  73
   1	  77
   1	  79
   1	  80
   1	  87
   1	  90
   1	  91
   1	  93
   1	  95
   1	 100
   1	 102
   1	 106
   1	 108
   1	 112
   1	 113
   1	 114
   1	 117
   1	 119
   2	   5
   2	   6
   2	  11
   2	  14
   2	  17
   2	  20
   2	  22
   2	  23
   2	  28
   2	  30
   2	  38
   2	  41
   2	  43
   2	  46
   2	  47
   2	  52
   2	  53
   2	  54
   2	  55
   2	  56
   2	  57
   2	  61
   2	  63
   2	  71
   2	  72
   2	  74
   2	  75
   2	  78
   2	  79
   2	  80
   2	  83
   2	  86
   2	  87
   2	  91
   2	  92
   2	  95
   2	  96
   2	  97
   2	 103
   2	 104
   2	 105
   2	 106
   2	 110
   2	 111
   2	 113
   2	 114
   2	 116
   2	 117
   2	 118
   2	 119
   3	   4
   3	   9
   3	  10
   3	  12
   3	  13
   3	  14
   3	  17
   3	  23
   3	  24
   3	  25
   3	  32
   3	  33
   3	  34
   3	  36
   3	  39
   3	  46
   3	  47
   3	  49
   3	  53
   3	  56
   3	  59
   3	  64
   3	  66
   3	  67
   3	  69
   3	  71
   3	  75
   3	  76
   3	  79
   3	  81
   3	  84
   3	  86
   3	  88
   3	  94
   3	  96
   3	  98
   3	  99
   3	 101
   3	 102
   3	 103
   3	 108
   3	 109
   3	 111
   3	 112
   3	 113
   3	 114
   3	 115
   3	 116
   3	 117
   3	 119
   4	   5
   4	   7
   4	  10
   4	  12
   4	  13
   4	  14
   4	  17
   4	  22
   4	  23
   4	  24
   4	  25
   4	  26
   4	  32
   4	  34
   4	  36
   4	  37
   4	  38
   4	  39
   4	  40
   4	  43
   4	  47
   4	  49
   4	  50
   4	  51
   4	  54
   4	  56
   4	  68
   4	  70
   4	  71
   4	  72
   4	  73
   4	  75
   4	  76
   4	  77
   4	  79
   4	  82
   4	  87
   4	  88
   4	  90
   4	  94
   4	  99
   4	 102
   4	 105
   4	 106
   4	 107
   4	 111
   4	 112
   4	 113
   5	   8
   5	  10
   5	  12
   5	  20
   5	  21
   5	  22
   5	  25
   5	  26
   5	  30
   5	  32
   5	  33
   5	  34
   5	  35
   5	  38
   5	  40
   5	  41
   5	  42
   5	  43
   5	  47
   5	  48
   5	  53
   5	  56
   5	  58
   5	  61
   5	  65
   5	  68
   5	  70
   5	  72
   5	  74
   5	  75
   5	  76
   5	  77
   5	  80
   5	  83
   5	  85
   5	  87
   5	  88
   5	  89
   5	  90
   5	  91
   5	  92
   5	  97
   5	 102
   5	 106
   5	 108
   5	 110
   5	 112
   5	 113
   5	 114
   5	 116
   6	   7
   6	   8
   6	  11
   6	  12
   6	  14
   6	  19
   6	  20
   6	  21
   6	  23
   6	  24
   6	  31
   6	  34
   6	  36
   6	  44
   6	  45
   6	  47
   6	  48
   6	  50
   6	  53
   6	  56
   6	  59
   6	  61
   6	  62
   6	  63
   6	  64
   6	  65
   6	  66
   6	  67
   6	  68
   6	  69
   6	  75
   6	  76
   6	  80
   6	  82
   6	  83
   6	  84
   6	  85
   6	  89
   6	  90
   6	  91
   6	 106
   6	 113
   6	 116
   6	 117
   6	 118
   7	   9
   7	  10
   7	  11
   7	  13
   7	  15
   7	  21
   7	  22
   7	  33
   7	  34
   7	  35
   7	  36
   7	  38
   7	  41
   7	  44
   7	  47
   7	  49
   7	  50
   7	  51
   7	  54
   7	  55
   7	  56
   7	  69
   7	  70
   7	  73
   7	  74
   7	  75
   7	  82
   7	  83
   7	  87
   7	  88
   7	  90
   7	  93
   7	  96
   7	  99
   7	 100
   7	 104
   7	 107
   7	 108
   7	 109
   7	 112
   7	 113
   8	  14
   8	  15
   8	  16
   8	  19
   8	  20
   8	  24
   8	  25
   8	  29
   8	  35
   8	  38
   8	  43
   8	  44
   8	  46
   8	  47
   8	  49
   8	  53
   8	  55
   8	  56
   8	  58
   8	  59
   8	  61
   8	  64
   8	  67
   8	  72
   8	  75
   8	  84
   8	  85
   8	  86
   8	  88
   8	  91
   8	  96
   8	 109
   8	 114
   8	 118
   8	 119
   9	  11
   9	  13
   9	  16
   9	  17
   9	  18
   9	  19
   9	  22
   9	  23
   9	  24
   9	  27
   9	  29
   9	  34
   9	  36
   9	  41
   9	  46
   9	  47
   9	  49
   9	  51
   9	  52
   9	  55
   9	  57
   9	  59
   9	  60
   9	  61
   9	  68
   9	  70
   9	  72
   9	  73
   9	  74
   9	  76
   9	  77
   9	  80
   9	  81
   9	  86
   9	  87
   9	  88
   9	  91
   9	  93
   9	 102
   9	 103
   9	 105
   9	 106
   9	 109
   9	 110
   9	 117
  10	  12
  10	  15
  10	  17
  10	  18
  10	  19
  10	  20
  10	  21
  10	  24
  10	  35
  10	  36
  10	  39
  10	  41
  10	  42
  10	  45
  10	  49
  10	  53
  10	  56
  10	  59
  10	  61
  10	  62
  10	  64
  10	  70
  10	  71
  10	  72
  10	  76
  10	  77
  10	  80
  10	  82
  10	  83
  10	  84
  10	  85
  10	  86
  10	  87
  10	  88
  10	  90
  10	  92
  10	  93
  10	  94
  10	 100
  10	 102
  10	 103
  10	 104
  10	 105
  10	 109
  10	 111
  10	 116
  10	 118
  10	 119
  11	  13
  11	  14
  11	  18
  11	  19
  11	  24
  11	  25
  11	  26
  11	  27
  11	  29
  11	  31
  11	  35
  11	  36
  11	  37
  11	  41
  11	  44
  11	  46
  11	  47
  11	  49
  11	  58
  11	  59
  11	  61
  11	  65
  11	  66
  11	  68
  11	  76
  11	  78
  11	  82
  11	  85
  11	  87
  11	  89
  11	  91
  11	  97
  11	  98
  11	 100
  11	 102
  11	 103
  11	 107
  11	 108
  11	 113
  11	 114
  11	 115
  11	 116
  12	  17
  12	  19
  12	  21
  12	  23
  12	  24
  12	  26
  12	  27
  12	  29
  12	  30
  12	  31
  12	  36
  12	  37
  12	  40
  12	  43
  12	  45
  12	  48
  12	  49
  12	  51
  12	  52
  12	  61
  12	  64
  12	  67
  12	  69
  12	  70
  12	  73
  12	  77
  12	  79
  12	  85
  12	  88
  12	  91
  12	  95
  12	 103
  12	 106
  12	 108
  12	 111
  12	 115
  12	 116
  13	  14
  13	  16
  13	  22
  13	  28
  13	  29
  13	  30
  13	  32
  13	  33
  13	  34
  13	  36
  13	  39
  13	  40
  13	  46
  13	  51
  13	  53
  13	  56
  13	  57
  13	  63
  13	  65
  13	  66
  13	  76
  13	  78
  13	  79
  13	  80
  13	  81
  13	  83
  13	  85
  13	  87
  13	  90
  13	  92
  13	  94
  13	  95
  13	  96
  13	  99
  13	 101
  13	 104
  13	 107
  13	 108
  13	 109
  13	 111
  13	 113
  13	 114
  13	 115
  13	 119
  14	  18
  14	  21
  14	  27
  14	  32
  14	  34
  14	  37
  14	  46
  14	  47
  14	  49
  14	  50
  14	  52
  14	  54
  14	  58
  14	  59
  14	  64
  14	  69
  14	  72
  14	  73
  14	  75
  14	  76
  14	  80
  14	  82
  14	  85
  14	  87
  14	  89
  14	  93
  14	  96
  14	 102
  14	 104
  14	 109
  14	 116
  15	  16
  15	  18
  15	  22
  15	  24
  15	  26
  15	  27
  15	  31
  15	  42
  15	  43
  15	  46
  15	  47
  15	  48
  15	  49
  15	  50
  15	  52
  15	  55
  15	  60
  15	  64
  15	  71
  15	  72
  15	  73
  15	  76
  15	  77
  15	  79
  15	  80
  15	  81
  15	  82
  15	  83
  15	  84
  15	  86
  15	  88
  15	  92
  15	  95
  15	  99
  15	 100
  15	 105
  15	 114
  15	 115
  16	  21
  16	  22
  16	  24
  16	  28
  16	  33
  16	  38
  16	  52
  16	  53
  16	  56
  16	  57
  16	  59
  16	  60
  16	  63
  16	  67
  16	  75
  16	  79
  16	  82
  16	  83
  16	  84
  16	  85
  16	  87
  16	  88
  16	  89
  16	  92
  16	  94
  16	  96
  16	  99
  16	 102
  16	 103
  16	 105
  16	 115
  16	 116
  16	 117
  16	 118
  17	  18
  17	  20
  17	  21
  17	  22
  17	  23
  17	  26
  17	  27
  17	  34
  17	  36
  17	  38
  17	  41
  17	  45
  17	  49
  17	  52
  17	  53
  17	  57
  17	  59
  17	  62
  17	  63
  17	  71
  17	  76
  17	  77
  17	  78
  17	  87
  17	  89
  17	  91
  17	  98
  17	 100
  17	 101
  17	 102
  17	 104
  17	 107
  17	 108
  17	 109
  17	 113
  17	 116
  17	 117
  18	  21
  18	  23
  18	  25
  18	  28
  18	  30
  18	  32
  18	  37
  18	  39
  18	  40
  18	  43
  18	  44
  18	  45
  18	  47
  18	  48
  18	  51
  18	  53
  18	  57
  18	  60
  18	  63
  18	  65
  18	  69
  18	  70
  18	  71
  18	  73
  18	  76
  18	  78
  18	  79
  18	  80
  18	  85
  18	  87
  18	  90
  18	  92
  18	  98
  18	  99
  18	 102
  18	 104
  18	 105
  18	 107
  18	 111
  18	 113
  18	 115
  18	 117
  18	 119
  19	  23
  19	  25
  19	  32
  19	  34
  19	  35
  19	  37
  19	  39
  19	  41
  19	  46
  19	  50
  19	  51
  19	  56
  19	  62
  19	  64
  19	  65
  19	  68
  19	  69
  19	  77
  19	  80
  19	  81
  19	  82
  19	  84
  19	  86
  19	  87
  19	  90
  19	  94
  19	  95
  19	 100
  19	 104
  19	 105
  19	 108
  19	 112
  19	 117
  20	  22
  20	  24
  20	  29
  20	  30
  20	  31
  20	  32
  20	  37
  20	  38
  20	  40
  20	  43
  20	  44
  20	  46
  20	  47
  20	  48
  20	  49
  20	  50
  20	  54
  20	  56
  20	  58
  20	  71
  20	  75
  20	  79
  20	  81
  20	  82
  20	  83
  20	  85
  20	  88
  20	  95
  20	  97
  20	  98
  20	 100
  20	 101
  20	 103
  20	 106
  20	 108
  20	 109
  20	 110
  20	 111
  20	 116
  20	 118
  21	  25
  21	  27
  21	  28
  21	  30
  21	  31
  21	  34
  21	  39
  21	  40
  21	  41
  21	  48
  21	  50
  21	  53
  21	  55
  21	  57
  21	  58
  21	  59
  21	  60
  21	  61
  21	  62
  21	  63
  21	  66
  21	  72
  21	  73
  21	  77
  21	  79
  21	  80
  21	  82
  21	  85
  21	  86
  21	  87
  21	  89
  21	  94
  21	  95
  21	  97
  21	 100
  21	 104
  21	 107
  21	 108
  21	 109
  21	 110
  21	 112
  21	 114
  21	 117
  21	 118
  22	  24
  22	  26
  22	  27
  22	  32
  22	  36
  22	  39
  22	  42
  22	  43
  22	  45
  22	  46
  22	  47
  22	  49
  22	  50
  22	  51
  22	  54
  22	  55
  22	  57
  22	  61
  22	  64
  22	  65
  22	  66
  22	  70
  22	  72
  22	  73
  22	  74
  22	  75
  22	  76
  22	  77
  22	  83
  22	  86
  22	  88
  22	  89
  22	  92
  22	  94
  22	  97
  22	  99
  22	 101
  22	 102
  22	 103
  22	 106
  22	 107
  22	 108
  22	 113
  22	 115
  22	 117
  22	 119
  23	  26
  23	  34
  23	  35
  23	  36
  23	  42
  23	  46
  23	  47
  23	  50
  23	  52
  23	  53
  23	  54
  23	  55
  23	  56
  23	  60
  23	  61
  23	  64
  23	  65
  23	  67
  23	  71
  23	  72
  23	  77
  23	  78
  23	  80
  23	  84
  23	  86
  23	  87
  23	  88
  23	  91
  23	  96
  23	  98
  23	  99
  23	 100
  23	 101
  23	 102
  23	 103
  23	 104
  23	 111
  23	 117
  23	 118
  23	 119
  24	  27
  24	  40
  24	  41
  24	  42
  24	  51
  24	  52
  24	  54
  24	  58
  24	  59
  24	  61
  24	  62
  24	  64
  24	  67
  24	  71
  24	  77
  24	  78
  24	  79
  24	  85
  24	  88
  24	  89
  24	  90
  24	  91
  24	  92
  24	  94
  24	  95
  24	  96
  24	  97
  24	  98
  24	 101
  24	 102
  24	 107
  24	 110
  24	 111
  24	 112
  24	 113
  24	 115
  24	 116
  24	 117
  24	 118
  25	  27
  25	  30
  25	  31
  25	  32
  25	  33
  25	  36
  25	  40
  25	  46
  25	  48
  25	  49
  25	  51
  25	  54
  25	  56
  25	  59
  25	  62
  25	  66
  25	  67
  25	  68
  25	  70
  25	  73
  25	  75
  25	  79
  25	  82
  25	  83
  25	  84
  25	  87
  25	  88
  25	  92
  25	  95
  25	  99
  25	 100
  25	 103
  25	 104
  25	 105
  25	 106
  25	 113
  25	 114
  25	 116
  25	 117
  25	 118
  26	  28
  26	  29
  26	  30
  26	  31
  26	  33
  26	  35
  26	  37
  26	  38
  26	  40
  26	  41
  26	  42
  26	  46
  26	  49
  26	  50
  26	  51
  26	  58
  26	  59
  26	  62
  26	  65
  26	  66
  26	  67
  26	  70
  26	  73
  26	  74
  26	  80
  26	  84
  26	  89
  26	  94
  26	  97
  26	  98
  26	 100
  26	 105
  26	 109
  26	 111
  26	 112
  26	 119
  27	  29
  27	  30
  27	  32
  27	  33
  27	  35
  27	  40
  27	  46
  27	  48
  27	  55
  27	  60
  27	  64
  27	  66
  27	  69
  27	  75
  27	  76
  27	  77
  27	  78
  27	  81
  27	  85
  27	  86
  27	  90
  27	  91
  27	  96
  27	  97
  27	 100
  27	 103
  27	 110
  27	 111
  27	 115
  27	 117
  27	 118
  27	 119
  28	  30
  28	  32
  28	  34
  28	  37
  28	  38
  28	  39
  28	  41
  28	  42
  28	  45
  28	  46
  28	  49
  28	  50
  28	  51
  28	  53
  28	  54
  28	  56
  28	  57
  28	  58
  28	  59
  28	  61
  28	  62
  28	  64
  28	  65
  28	  68
  28	  70
  28	  72
  28	  73
  28	  74
  28	  75
  28	  79
  28	  84
  28	  85
  28	  86
  28	  89
  28	  90
  28	  91
  28	  97
  28	  98
  28	 100
  28	 103
  28	 106
  28	 107
  28	 110
  28	 112
  28	 113
  28	 114
  28	 115
  28	 117
  28	 118
  28	 119
  29	  30
  29	  31
  29	  32
  29	  33
  29	  34
  29	  35
  29	  40
  29	  45
  29	  46
  29	  47
  29	  49
  29	  52
  29	  53
  29	  57
  29	  59
  29	  60
  29	  63
  29	  64
  29	  65
  29	  66
  29	  72
  29	  73
  29	  74
  29	  76
  29	  80
  29	  82
  29	  84
  29	  86
  29	  88
  29	  89
  29	  92
  29	  94
  29	  95
  29	  97
  29	  99
  29	 104
  29	 105
  29	 107
  29	 110
  29	 111
  29	 112
  29	 116
  29	 119
  30	  32
  30	  33
  30	  34
  30	  35
  30	  36
  30	  39
  30	  40
  30	  48
  30	  49
  30	  54
  30	  55
  30	  57
  30	  58
  30	  60
  30	  61
  30	  62
  30	  64
  30	  65
  30	  68
  30	  74
  30	  76
  30	  82
  30	  83
  30	  84
  30	  85
  30	  87
  30	  88
  30	  98
  30	  99
  30	 101
  30	 108
  30	 110
  30	 111
  30	 115
  31	  33
  31	  37
  31	  39
  31	  40
  31	  42
  31	  44
  31	  48
  31	  49
  31	  53
  31	  54
  31	  62
  31	  63
  31	  67
  31	  75
  31	  76
  31	  78
  31	  80
  31	  82
  31	  84
  31	  88
  31	  90
  31	  92
  31	  94
  31	  96
  31	  97
  31	 100
  31	 106
  31	 115
  31	 116
  31	 117
  31	 119
  32	  33
  32	  38
  32	  43
  32	  44
  32	  47
  32	  49
  32	  50
  32	  56
  32	  63
  32	  66
  32	  67
  32	  68
  32	  73
  32	  74
  32	  78
  32	  79
  32	  80
  32	  81
  32	  84
  32	  92
  32	  99
  32	 101
  32	 102
  32	 103
  32	 106
  32	 108
  32	 110
  32	 116
  32	 119
  33	  34
  33	  37
  33	  38
  33	  39
  33	  40
  33	  41
  33	  43
  33	  45
  33	  46
  33	  47
  33	  48
  33	  49
  33	  54
  33	  55
  33	  56
  33	  58
  33	  60
  33	  61
  33	  62
  33	  64
  33	  67
  33	  71
  33	  72
  33	  73
  33	  75
  33	  76
  33	  78
  33	  79
  33	  80
  33	  81
  33	  82
  33	  83
  33	  87
  33	  88
  33	  89
  33	  90
  33	  91
  33	  93
  33	  94
  33	  95
  33	  97
  33	  98
  33	  99
  33	 102
  33	 106
  33	 107
  33	 108
  33	 109
  33	 111
  33	 112
  33	 114
  33	 117
  33	 118
  34	  37
  34	  38
  34	  44
  34	  49
  34	  51
  34	  58
  34	  60
  34	  61
  34	  62
  34	  64
  34	  65
  34	  68
  34	  72
  34	  73
  34	  75
  34	  82
  34	  83
  34	  84
  34	  89
  34	  92
  34	  94
  34	  99
  34	 100
  34	 101
  34	 102
  34	 106
  34	 108
  34	 109
  34	 110
  34	 116
  35	  37
  35	  39
  35	  40
  35	  44
  35	  48
  35	  50
  35	  52
  35	  53
  35	  58
  35	  59
  35	  61
  35	  62
  35	  66
  35	  70
  35	  72
  35	  73
  35	  78
  35	  79
  35	  82
  35	  83
  35	  84
  35	  86
  35	  90
  35	  91
  35	  95
  35	  96
  35	  97
  35	  99
  35	 100
  35	 101
  35	 103
  35	 104
  35	 106
  35	 110
  35	 114
  35	 116
  36	  41
  36	  42
  36	  43
  36	  45
  36	  48
  36	  49
  36	  50
  36	  52
  36	  53
  36	  56
  36	  58
  36	  60
  36	  66
  36	  67
  36	  75
  36	  76
  36	  82
  36	  83
  36	  89
  36	  90
  36	  93
  36	  94
  36	  97
  36	 100
  36	 101
  36	 102
  36	 105
  36	 109
  36	 111
  36	 112
  36	 113
  36	 114
  36	 116
  36	 117
  36	 119
  37	  38
  37	  43
  37	  44
  37	  45
  37	  48
  37	  53
  37	  54
  37	  55
  37	  56
  37	  57
  37	  59
  37	  60
  37	  63
  37	  72
  37	  73
  37	  75
  37	  82
  37	  83
  37	  84
  37	  87
  37	  89
  37	  91
  37	  92
  37	 100
  37	 103
  37	 104
  37	 106
  37	 107
  37	 109
  37	 111
  37	 118
  38	  39
  38	  44
  38	  48
  38	  50
  38	  51
  38	  52
  38	  54
  38	  60
  38	  64
  38	  67
  38	  68
  38	  73
  38	  74
  38	  75
  38	  76
  38	  77
  38	  81
  38	  83
  38	  87
  38	  89
  38	  90
  38	  91
  38	  92
  38	  94
  38	  95
  38	  97
  38	  99
  38	 100
  38	 104
  38	 105
  38	 106
  38	 116
  38	 117
  38	 119
  39	  40
  39	  43
  39	  45
  39	  46
  39	  52
  39	  53
  39	  55
  39	  63
  39	  66
  39	  67
  39	  73
  39	  75
  39	  80
  39	  81
  39	  82
  39	  83
  39	  85
  39	  88
  39	  90
  39	  94
  39	  95
  39	  99
  39	 100
  39	 101
  39	 102
  39	 105
  39	 108
  39	 110
  39	 112
  39	 114
  39	 116
  39	 117
  39	 118
  39	 119
  40	  44
  40	  46
  40	  49
  40	  50
  40	  51
  40	  52
  40	  53
  40	  56
  40	  57
  40	  58
  40	  60
  40	  61
  40	  62
  40	  66
  40	  67
  40	  69
  40	  70
  40	  71
  40	  73
  40	  75
  40	  76
  40	  80
  40	  84
  40	  88
  40	  89
  40	  91
  40	  93
  40	  94
  40	  95
  40	  96
  40	 101
  40	 104
  40	 106
  40	 108
  40	 111
  40	 113
  40	 114
  40	 115
  40	 119
  41	  42
  41	  43
  41	  49
  41	  51
  41	  52
  41	  54
  41	  56
  41	  57
  41	  58
  41	  59
  41	  60
  41	  62
  41	  66
  41	  67
  41	  72
  41	  76
  41	  77
  41	  78
  41	  79
  41	  80
  41	  83
  41	  88
  41	  89
  41	  90
  41	  91
  41	  94
  41	  95
  41	  97
  41	  99
  41	 100
  41	 102
  41	 103
  41	 104
  41	 109
  41	 110
  41	 113
  41	 114
  41	 115
  41	 116
  41	 117
  41	 118
  41	 119
  42	  47
  42	  49
  42	  50
  42	  52
  42	  54
  42	  55
  42	  56
  42	  61
  42	  64
  42	  68
  42	  69
  42	  71
  42	  72
  42	  78
  42	  80
  42	  83
  42	  84
  42	  85
  42	  87
  42	  90
  42	  93
  42	  94
  42	  95
  42	  97
  42	  98
  42	 101
  42	 104
  42	 105
  42	 119
  43	  44
  43	  45
  43	  46
  43	  51
  43	  53
  43	  58
  43	  59
  43	  62
  43	  63
  43	  64
  43	  69
  43	  70
  43	  71
  43	  76
  43	  84
  43	  89
  43	  90
  43	  94
  43	  95
  43	  96
  43	  98
  43	 100
  43	 101
  43	 104
  43	 106
  43	 108
  43	 111
  43	 115
  43	 116
  43	 117
  43	 119
  44	  45
  44	  47
  44	  48
  44	  49
  44	  52
  44	  58
  44	  60
  44	  61
  44	  64
  44	  65
  44	  66
  44	  68
  44	  73
  44	  75
  44	  77
  44	  79
  44	  81
  44	  82
  44	  85
  44	  88
  44	  90
  44	  93
  44	  96
  44	  98
  44	  99
  44	 101
  44	 103
  44	 107
  44	 108
  44	 109
  44	 112
  45	  47
  45	  50
  45	  51
  45	  54
  45	  56
  45	  57
  45	  59
  45	  60
  45	  61
  45	  68
  45	  73
  45	  75
  45	  78
  45	  81
  45	  93
  45	  97
  45	  99
  45	 101
  45	 103
  45	 112
  45	 113
  45	 114
  45	 117
  45	 119
  46	  47
  46	  52
  46	  54
  46	  59
  46	  60
  46	  61
  46	  62
  46	  63
  46	  64
  46	  68
  46	  73
  46	  75
  46	  76
  46	  77
  46	  79
  46	  80
  46	  84
  46	  85
  46	  89
  46	  92
  46	  93
  46	  94
  46	  95
  46	  96
  46	  98
  46	 101
  46	 105
  46	 106
  46	 108
  46	 113
  46	 114
  46	 115
  46	 119
  47	  48
  47	  49
  47	  51
  47	  53
  47	  55
  47	  56
  47	  65
  47	  70
  47	  72
  47	  73
  47	  74
  47	  76
  47	  77
  47	  79
  47	  84
  47	  85
  47	  87
  47	  90
  47	  93
  47	  95
  47	  96
  47	  97
  47	  98
  47	 100
  47	 105
  47	 106
  47	 111
  47	 113
  47	 115
  47	 116
  48	  49
  48	  54
  48	  57
  48	  61
  48	  63
  48	  65
  48	  66
  48	  74
  48	  76
  48	  78
  48	  79
  48	  80
  48	  81
  48	  82
  48	  83
  48	  84
  48	  85
  48	  87
  48	  88
  48	  89
  48	  90
  48	  92
  48	  93
  48	  96
  48	  97
  48	 105
  48	 107
  48	 108
  48	 111
  48	 114
  48	 115
  49	  50
  49	  52
  49	  53
  49	  61
  49	  64
  49	  68
  49	  69
  49	  72
  49	  73
  49	  75
  49	  76
  49	  78
  49	  83
  49	  85
  49	  87
  49	  88
  49	  89
  49	  90
  49	  93
  49	  94
  49	  99
  49	 102
  49	 103
  49	 108
  49	 109
  49	 110
  49	 113
  49	 117
  49	 118
  49	 119
  50	  51
  50	  54
  50	  56
  50	  59
  50	  60
  50	  65
  50	  70
  50	  72
  50	  73
  50	  74
  50	  77
  50	  82
  50	  83
  50	  89
  50	  91
  50	  92
  50	  93
  50	  98
  50	  99
  50	 100
  50	 109
  50	 119
  51	  55
  51	  60
  51	  63
  51	  65
  51	  67
  51	  68
  51	  71
  51	  74
  51	  76
  51	  80
  51	  81
  51	  84
  51	  86
  51	  90
  51	  95
  51	  96
  51	  97
  51	  99
  51	 102
  51	 107
  51	 111
  51	 113
  51	 114
  51	 118
  52	  53
  52	  60
  52	  61
  52	  62
  52	  67
  52	  69
  52	  72
  52	  76
  52	  77
  52	  80
  52	  81
  52	  82
  52	  83
  52	  89
  52	  90
  52	  91
  52	  92
  52	  93
  52	  94
  52	  95
  52	  98
  52	 106
  52	 107
  52	 113
  52	 115
  52	 117
  52	 119
  53	  58
  53	  60
  53	  63
  53	  64
  53	  69
  53	  70
  53	  71
  53	  72
  53	  78
  53	  79
  53	  80
  53	  84
  53	  85
  53	  89
  53	  93
  53	  96
  53	  98
  53	  99
  53	 104
  53	 113
  53	 116
  54	  57
  54	  58
  54	  61
  54	  65
  54	  66
  54	  70
  54	  74
  54	  78
  54	  79
  54	  81
  54	  84
  54	  86
  54	  88
  54	  89
  54	  96
  54	  99
  54	 105
  54	 111
  54	 116
  54	 118
  55	  56
  55	  58
  55	  59
  55	  60
  55	  61
  55	  69
  55	  70
  55	  72
  55	  73
  55	  75
  55	  78
  55	  81
  55	  86
  55	  88
  55	  89
  55	  91
  55	  93
  55	  96
  55	  98
  55	 102
  55	 103
  55	 104
  55	 113
  55	 114
  55	 118
  55	 119
  56	  58
  56	  59
  56	  60
  56	  66
  56	  68
  56	  69
  56	  71
  56	  72
  56	  74
  56	  76
  56	  77
  56	  79
  56	  81
  56	  86
  56	  88
  56	  90
  56	  92
  56	  93
  56	  94
  56	  99
  56	 100
  56	 101
  56	 103
  56	 109
  56	 113
  56	 115
  57	  58
  57	  60
  57	  67
  57	  68
  57	  71
  57	  72
  57	  74
  57	  77
  57	  81
  57	  82
  57	  84
  57	  85
  57	  91
  57	  94
  57	  96
  57	 100
  57	 101
  57	 104
  57	 105
  57	 106
  57	 107
  57	 110
  57	 111
  57	 115
  57	 116
  57	 117
  58	  67
  58	  68
  58	  69
  58	  70
  58	  71
  58	  74
  58	  75
  58	  76
  58	  78
  58	  79
  58	  85
  58	  91
  58	  94
  58	  95
  58	  96
  58	 107
  58	 111
  58	 116
  58	 117
  58	 119
  59	  67
  59	  72
  59	  74
  59	  77
  59	  81
  59	  84
  59	  85
  59	  86
  59	  87
  59	  91
  59	  94
  59	  95
  59	  97
  59	  98
  59	 100
  59	 101
  59	 110
  59	 111
  59	 113
  59	 114
  59	 115
  59	 117
  59	 119
  60	  61
  60	  63
  60	  66
  60	  67
  60	  74
  60	  76
  60	  77
  60	  78
  60	  85
  60	  88
  60	  92
  60	  95
  60	  97
  60	  99
  60	 100
  60	 101
  60	 103
  60	 104
  60	 108
  60	 113
  60	 116
  61	  63
  61	  67
  61	  68
  61	  70
  61	  71
  61	  73
  61	  77
  61	  78
  61	  80
  61	  85
  61	  87
  61	  90
  61	  91
  61	  92
  61	  97
  61	 102
  61	 105
  61	 106
  61	 108
  61	 115
  61	 116
  61	 118
  62	  63
  62	  69
  62	  75
  62	  76
  62	  78
  62	  79
  62	  80
  62	  84
  62	  85
  62	  86
  62	  87
  62	  88
  62	  90
  62	  95
  62	  98
  62	  99
  62	 100
  62	 103
  62	 104
  62	 105
  62	 109
  62	 113
  62	 114
  62	 115
  62	 117
  62	 118
  63	  66
  63	  71
  63	  72
  63	  75
  63	  76
  63	  77
  63	  78
  63	  79
  63	  82
  63	  91
  63	  94
  63	  98
  63	 103
  63	 106
  63	 107
  63	 109
  63	 110
  63	 111
  63	 112
  63	 115
  63	 116
  63	 118
  63	 119
  64	  67
  64	  70
  64	  74
  64	  75
  64	  79
  64	  84
  64	  86
  64	  87
  64	  88
  64	  89
  64	  92
  64	  93
  64	  94
  64	  96
  64	  97
  64	  98
  64	 100
  64	 101
  64	 105
  64	 107
  64	 108
  64	 113
  64	 115
  64	 118
  64	 119
  65	  68
  65	  69
  65	  72
  65	  76
  65	  78
  65	  79
  65	  82
  65	  83
  65	  85
  65	  90
  65	  92
  65	  93
  65	  94
  65	  98
  65	 101
  65	 103
  65	 104
  65	 109
  65	 110
  65	 115
  65	 116
  65	 118
  65	 119
  66	  68
  66	  69
  66	  70
  66	  73
  66	  75
  66	  76
  66	  80
  66	  83
  66	  85
  66	  86
  66	  90
  66	  92
  66	  93
  66	  99
  66	 100
  66	 101
  66	 105
  66	 108
  66	 110
  66	 111
  66	 117
  67	  69
  67	  72
  67	  74
  67	  75
  67	  77
  67	  79
  67	  80
  67	  87
  67	  88
  67	  93
  67	  94
  67	  95
  67	  98
  67	 100
  67	 101
  67	 104
  67	 107
  67	 112
  67	 114
  68	  69
  68	  70
  68	  71
  68	  73
  68	  76
  68	  77
  68	  78
  68	  82
  68	  83
  68	  85
  68	  86
  68	  88
  68	  90
  68	  93
  68	  94
  68	  96
  68	  97
  68	  98
  68	 100
  68	 101
  68	 102
  68	 104
  68	 105
  68	 107
  68	 110
  68	 111
  68	 113
  68	 116
  68	 117
  68	 118
  68	 119
  69	  70
  69	  71
  69	  72
  69	  73
  69	  75
  69	  77
  69	  79
  69	  80
  69	  81
  69	  85
  69	  99
  69	 103
  69	 107
  69	 112
  69	 113
  69	 114
  69	 116
  69	 118
  70	  74
  70	  76
  70	  78
  70	  79
  70	  81
  70	  82
  70	  84
  70	  86
  70	  87
  70	  88
  70	  90
  70	  97
  70	  98
  70	 103
  70	 106
  70	 109
  70	 112
  70	 114
  70	 115
  71	  74
  71	  75
  71	  86
  71	  88
  71	  89
  71	  90
  71	  91
  71	  92
  71	  95
  71	  97
  71	  99
  71	 103
  71	 105
  71	 108
  71	 111
  71	 112
  71	 116
  71	 119
  72	  74
  72	  78
  72	  82
  72	  83
  72	  84
  72	  85
  72	  86
  72	  87
  72	  88
  72	  89
  72	  93
  72	  96
  72	  97
  72	  98
  72	  99
  72	 100
  72	 102
  72	 105
  72	 106
  72	 109
  72	 113
  72	 118
  72	 119
  73	  76
  73	  77
  73	  78
  73	  81
  73	  87
  73	  88
  73	  89
  73	  96
  73	  98
  73	 102
  73	 105
  73	 111
  73	 112
  73	 113
  73	 117
  74	  75
  74	  86
  74	  87
  74	  91
  74	  94
  74	 101
  74	 105
  74	 106
  74	 108
  74	 109
  74	 113
  74	 114
  75	  83
  75	  86
  75	  87
  75	  88
  75	  90
  75	  94
  75	  95
  75	  97
  75	  98
  75	 105
  75	 111
  75	 113
  75	 115
  75	 116
  75	 119
  76	  82
  76	  84
  76	  85
  76	  87
  76	  91
  76	  94
  76	  97
  76	 108
  76	 109
  76	 111
  76	 116
  77	  80
  77	  81
  77	  82
  77	  86
  77	  88
  77	  90
  77	  92
  77	 103
  77	 105
  77	 110
  77	 113
  77	 114
  77	 115
  77	 117
  78	  79
  78	  83
  78	  84
  78	  87
  78	  88
  78	  89
  78	  90
  78	  93
  78	  95
  78	  98
  78	  99
  78	 104
  78	 112
  78	 113
  78	 114
  79	  81
  79	  82
  79	  83
  79	  84
  79	  85
  79	  86
  79	  87
  79	  88
  79	  93
  79	  94
  79	  98
  79	  99
  79	 102
  79	 105
  79	 106
  79	 108
  79	 110
  79	 113
  79	 119
  80	  81
  80	  82
  80	  84
  80	  88
  80	  93
  80	  94
  80	  97
  80	  98
  80	  99
  80	 101
  80	 104
  80	 109
  80	 113
  80	 118
  80	 119
  81	  82
  81	  83
  81	  88
  81	  90
  81	  91
  81	  99
  81	 100
  81	 101
  81	 106
  81	 108
  81	 110
  81	 111
  81	 117
  82	  84
  82	  85
  82	  95
  82	  96
  82	  99
  82	 100
  82	 103
  82	 104
  82	 105
  82	 106
  82	 107
  82	 109
  82	 110
  82	 112
  82	 113
  83	  85
  83	  87
  83	  88
  83	  89
  83	  91
  83	  92
  83	  93
  83	  94
  83	  95
  83	  96
  83	 101
  83	 107
  83	 109
  83	 112
  83	 113
  83	 115
  83	 116
  83	 117
  83	 118
  83	 119
  84	  86
  84	  88
  84	  89
  84	  90
  84	  95
  84	  97
  84	 100
  84	 103
  84	 106
  84	 109
  84	 111
  84	 112
  84	 113
  84	 115
  85	  87
  85	  88
  85	  94
  85	  97
  85	  98
  85	 100
  85	 102
  85	 103
  85	 104
  85	 106
  85	 108
  85	 110
  85	 113
  85	 114
  85	 117
  86	  88
  86	  89
  86	  92
  86	  94
  86	  95
  86	  97
  86	  98
  86	  99
  86	 100
  86	 101
  86	 103
  86	 108
  86	 109
  86	 110
  86	 117
  87	  97
  87	  98
  87	 101
  87	 104
  87	 109
  87	 113
  87	 116
  87	 118
  88	  91
  88	  97
  88	 101
  88	 102
  88	 107
  88	 108
  88	 110
  88	 113
  88	 115
  88	 117
  88	 118
  88	 119
  89	  93
  89	  94
  89	  95
  89	  99
  89	 100
  89	 102
  89	 103
  89	 104
  89	 107
  89	 110
  89	 111
  89	 113
  89	 114
  89	 115
  90	  91
  90	  95
  90	  96
  90	  97
  90	  98
  90	  99
  90	 101
  90	 103
  90	 104
  90	 106
  90	 115
  90	 116
  90	 117
  91	  94
  91	  97
  91	  98
  91	  99
  91	 100
  91	 101
  91	 102
  91	 103
  91	 104
  91	 107
  91	 109
  91	 110
  91	 111
  91	 115
  91	 116
  91	 118
  92	  93
  92	  95
  92	  96
  92	  97
  92	  99
  92	 101
  92	 105
  92	 112
  92	 116
  92	 117
  92	 118
  93	  94
  93	  95
  93	  97
  93	  98
  93	 100
  93	 101
  93	 102
  93	 103
  93	 104
  93	 105
  93	 116
  93	 118
  93	 119
  94	  95
  94	  96
  94	  99
  94	 100
  94	 102
  94	 103
  94	 105
  94	 106
  94	 107
  94	 109
  94	 110
  94	 111
  94	 113
  94	 118
  94	 119
  95	  96
  95	  98
  95	 102
  95	 105
  95	 107
  95	 108
  95	 109
  95	 110
  95	 112
  95	 113
  95	 115
  95	 117
  95	 118
  95	 119
  96	 100
  96	 101
  96	 103
  96	 105
  96	 115
  96	 117
  96	 118
  96	 119
  97	  98
  97	 104
  97	 105
  97	 108
  97	 109
  97	 113
  97	 116
  97	 118
  98	  99
  98	 100
  98	 102
  98	 104
  98	 105
  98	 107
  98	 109
  98	 113
  98	 114
  98	 115
  98	 118
  98	 119
  99	 102
  99	 103
  99	 104
  99	 105
  99	 106
  99	 109
  99	 113
  99	 119
 100	 103
 100	 105
 100	 107
 100	 108
 100	 109
 100	 111
 100	 112
 100	 114
 100	 115
 101	 102
 101	 107
 101	 108
 101	 109
 101	 112
 101	 113
 102	 105
 102	 107
 102	 110
 102	 112
 102	 115
 102	 117
 102	 119
 103	 104
 103	 106
 103	 107
 103	 109
 103	 112
 103	 115
 104	 106
 104	 109
 104	 118
 104	 119
 105	 106
 105	 107
 105	 109
 105	 110
 105	 111
 105	 118
 105	 119
 106	 107
 106	 108
 106	 109
 106	 110
 106	 111
 106	 113
 107	 108
 107	 109
 107	 113
 107	 116
 107	 117
 107	 118
 108	 114
 109	 110
 109	 113
 110	 111
 110	 112
 110	 113
 110	 117
 111	 117
 111	 118
 112	 113
 112	 114
 112	 116
 112	 118
 113	 118
 113	 119
 114	 115
 114	 116
 114	 119
 115	 119
 116	 117
 117	 118
 118	 119
;
